This is Ipopt version 3.10.1, running with linear solver mumps.

Number of nonzeros in equality constraint Jacobian...:      141
Number of nonzeros in inequality constraint Jacobian.:        0
Number of nonzeros in Lagrangian Hessian.............:     2019

Total number of variables............................:       72
                     variables with only lower bounds:        0
                variables with lower and upper bounds:       72
                     variables with only upper bounds:        0
Total number of equality constraints.................:       47
Total number of inequality constraints...............:        0
        inequality constraints with only lower bounds:        0
   inequality constraints with lower and upper bounds:        0
        inequality constraints with only upper bounds:        0

iter    objective    inf_pr   inf_du lg(mu)  ||d||  lg(rg) alpha_du alpha_pr  ls
   0 -1.4753725e-03 1.00e-02 4.54e-03  -1.0 0.00e+00    -  0.00e+00 0.00e+00   0
   1 -1.4409176e-03 4.64e-10 1.24e-03  -1.7 2.00e-02    -  9.90e-01 1.00e+00h  1
   2 -1.4026117e-03 2.22e-16 1.22e-03  -2.5 3.32e-02    -  9.90e-01 1.00e+00f  1
   3 -1.5091244e-03 8.95e-12 4.69e-04  -3.8 4.71e-02    -  9.44e-01 1.00e+00f  1
   4 -2.3785146e-03 6.90e-13 1.12e-03  -5.7 7.35e-02  -2.0 8.32e-01 1.00e+00f  1
   5 -3.8770979e-03 2.22e-16 2.54e-03  -5.7 6.52e-02  -1.6 9.59e-01 1.00e+00f  1
   6 -4.3384119e-03 3.28e-13 2.75e-03  -5.7 3.90e-02  -1.1 1.00e+00 3.56e-01f  1
   7 -6.2806740e-03 1.24e-12 1.74e-02  -5.7 1.05e+00  -1.6 4.91e-01 4.14e-02f  1
   8 -8.0795332e-03 8.43e-13 5.72e-03  -5.7 9.89e-02  -1.2 1.00e+00 3.22e-01f  1
   9 -8.0785661e-03 8.42e-13 5.44e-03  -5.7 2.50e-01  -1.7 2.10e-01 6.10e-05f 15
iter    objective    inf_pr   inf_du lg(mu)  ||d||  lg(rg) alpha_du alpha_pr  ls
  10 -1.1617693e-02 3.16e-12 1.88e-02  -5.7 2.40e-01  -1.3 1.00e+00 1.87e-01f  1
  11 -1.2131015e-02 2.80e-12 2.55e-02  -5.7 5.51e-02  -0.8 1.00e+00 1.14e-01f  1
  12 -1.3844476e-02 4.44e-16 6.95e-03  -5.7 1.69e-02  -0.4 1.00e+00 1.00e+00f  1
  13 -1.7521045e-02 2.42e-12 9.12e-03  -5.7 9.10e-02  -0.9 1.00e+00 3.20e-01f  1
  14 -1.7518112e-02 2.42e-12 9.46e-03  -5.7 4.25e-01  -1.4 7.83e-03 6.10e-05f 15
  15 -1.7511342e-02 2.41e-12 9.13e-03  -5.7 1.83e+01  -0.9 1.63e-03 6.51e-06f 13
  16 -4.6823590e-03 4.66e-15 4.82e-02  -5.7 3.29e-01  -1.4 6.59e-02 1.00e+00h  1
  17 -5.1457318e-03 2.04e-12 3.54e-02  -5.7 2.64e-01  -1.9 7.16e-01 1.02e-01f  3
  18 -6.5434346e-03 4.44e-16 2.48e-03  -5.7 7.08e-02  -1.5 1.00e+00 1.00e+00f  1
  19 -7.2850873e-03 6.66e-16 2.70e-03  -5.7 2.88e-02  -1.0 1.00e+00 1.00e+00f  1
iter    objective    inf_pr   inf_du lg(mu)  ||d||  lg(rg) alpha_du alpha_pr  ls
  20 -1.0449899e-02 1.56e-12 4.56e-03  -5.7 1.49e-01  -1.5 1.00e+00 5.52e-01f  1
  21 -1.1849388e-02 1.87e-12 7.17e-03  -5.7 6.60e-02  -1.1 1.00e+00 4.70e-01f  1
  22 -1.6146604e-02 1.45e-12 6.26e-02  -5.7 2.37e+00  -1.6 5.76e-03 2.23e-01f  1
  23 -1.6139515e-02 1.46e-12 6.25e-02  -5.7 3.58e-01  -1.1 7.64e-01 9.37e-04f 11
  24 -1.7397348e-02 1.01e-12 4.30e-02  -5.7 4.33e-02  -0.7 1.84e-01 3.11e-01f  1
  25 -2.3940730e-02 8.60e-13 4.20e-02  -5.7 3.60e-01  -1.2 7.00e-01 1.47e-01f  1
  26 -2.4211761e-02 1.33e-12 3.76e-02  -5.7 8.22e-02  -0.8 4.24e-01 2.71e-02f  1
  27 -3.0104500e-02 1.30e-12 1.24e-01  -5.7 2.21e+00  -1.2 2.22e-01 2.25e-02f  1
  28 -3.3159339e-02 4.51e-12 4.04e-02  -5.7 1.43e-01  -0.8 1.00e+00 1.45e-01f  1
  29 -1.9546977e-02 3.18e-12 5.62e-02  -5.7 4.50e-01  -1.3 7.22e-02 2.94e-01h  1
iter    objective    inf_pr   inf_du lg(mu)  ||d||  lg(rg) alpha_du alpha_pr  ls
  30 -2.5265492e-02 4.88e-15 1.59e-02  -5.7 1.03e-01  -0.9 7.88e-01 1.00e+00f  1
  31 -2.5352506e-02 5.62e-14 1.21e-01  -5.7 1.45e+02  -1.3 3.36e-03 6.12e-06f  1
  32 -2.9703225e-02 3.36e-14 5.61e-02  -5.7 1.10e-01  -0.9 5.59e-01 4.01e-01f  1
  33 -2.9702904e-02 3.36e-14 5.56e-02  -5.7 2.03e+00  -1.4 1.13e-03 1.95e-06f 17
  34 -2.9688979e-02 3.24e-14 4.18e-02  -5.7 7.06e+01  -1.0 1.49e-03 3.41e-06f 11
  35 -3.2579986e-02 7.65e-12 1.17e-02  -5.7 4.20e-02  -0.5 1.00e+00 7.68e-01f  1
  36 -3.8034645e-02 5.86e-12 3.51e-02  -5.7 2.14e-01  -1.0 9.15e-01 2.34e-01f  1
  37 -3.8872240e-02 4.98e-12 2.86e-02  -5.7 4.17e-02  -0.6 1.00e+00 1.50e-01f  1
  38 -5.9089251e-02 1.18e-11 3.04e-02  -5.7 3.05e-01  -1.1 2.54e-01 3.96e-01f  1
  39 -6.4644681e-02 1.20e-11 3.14e-02  -5.7 1.37e-01  -0.6 3.13e-01 1.94e-01f  1
iter    objective    inf_pr   inf_du lg(mu)  ||d||  lg(rg) alpha_du alpha_pr  ls
  40 -7.0255718e-02 1.01e-11 2.95e-02  -5.7 4.28e-02  -0.2 8.31e-01 5.02e-01f  1
  41 -8.0153402e-02 1.41e-11 3.39e-02  -5.7 2.17e-01  -0.7 1.69e-01 1.87e-01f  1
  42 -8.3406081e-02 9.32e-12 6.87e-02  -5.7 4.14e-02  -0.3 1.00e+00 3.39e-01f  1
  43 -8.5503241e-02 8.96e-12 6.96e-02  -5.7 1.85e-01  -0.7 1.47e-01 3.82e-02f  1
  44 -8.5499733e-02 8.96e-12 6.13e-02  -5.7 1.44e+00  -1.2 1.31e-01 9.82e-05f  9
  45 -9.5089481e-02 7.77e-12 4.48e-02  -5.7 2.15e-01  -0.8 2.59e-02 1.34e-01f  1
  46 -9.5085675e-02 7.76e-12 4.26e-02  -5.7 8.28e-01  -1.3 3.69e-02 1.49e-04f 10
  47 -9.5312144e-02 7.86e-12 5.98e-02  -5.7 6.03e-01  -0.8 9.61e-02 1.57e-03f  1
  48 -1.1576039e-01 2.29e-11 5.04e-02  -5.7 6.67e-02  -0.4 3.64e-01 7.98e-01f  1
  49 -1.1575891e-01 2.29e-11 9.09e-02  -5.7 2.06e+00  -0.9 4.38e-02 3.18e-06f 15
iter    objective    inf_pr   inf_du lg(mu)  ||d||  lg(rg) alpha_du alpha_pr  ls
  50 -1.1866662e-01 2.23e-11 4.50e-02  -5.7 1.36e-01  -0.5 6.32e-01 5.59e-02f  1
  51 -1.3475735e-01 1.39e-11 3.14e-02  -5.7 3.29e-02  -0.0 1.00e+00 1.00e+00f  1
  52 -1.5966978e-01 1.81e-11 3.99e-02  -5.7 3.12e-01  -0.5 4.33e-01 1.81e-01f  1
  53 -1.6890440e-01 1.35e-11 1.46e-01  -5.7 7.43e-02  -0.1 1.00e+00 2.51e-01f  1
  54 -2.5500807e-01 5.86e-11 1.10e-01  -5.7 1.04e+00  -0.6 8.66e-02 1.46e-01f  1
  55 -2.5929219e-01 5.92e-11 3.57e-01  -5.7 1.45e-01  -0.1 1.00e+00 3.00e-02f  1
  56 -2.6504411e-01 5.41e-11 1.18e-01  -5.7 3.33e-02   0.3 1.00e+00 1.43e-01f  1
  57 -2.7233447e-01 5.06e-11 1.68e-01  -5.7 1.28e-01  -0.2 4.46e-01 6.51e-02f  1
  58 -1.7750601e-01 4.82e-11 2.60e-01  -5.7 3.57e+00  -0.7 1.07e-02 4.63e-02h  1
  59 -1.7922981e-01 4.55e-11 2.27e-01  -5.7 9.92e-01  -1.1 1.34e-01 5.74e-02f  1
iter    objective    inf_pr   inf_du lg(mu)  ||d||  lg(rg) alpha_du alpha_pr  ls
  60 -2.6566399e-01 2.89e-11 1.13e-01  -5.7 2.35e-01  -0.7 1.00e+00 6.55e-01F  1
  61 -2.6566339e-01 2.89e-11 1.50e-01  -5.7 4.29e-01  -1.2 3.21e-01 3.40e-06f 18
  62 -2.0145115e-01 2.60e-11 1.96e-01  -5.7 1.63e+00  -0.8 2.52e-02 9.96e-02h  1
  63 -2.1258237e-01 7.34e-12 1.36e-01  -5.7 5.23e-02  -0.3 1.18e-01 7.18e-01f  1
  64 -2.6120119e-01 3.41e-11 1.35e-01  -5.7 1.57e+00  -0.8 1.20e-01 7.65e-02F  1
  65 -2.6119078e-01 3.41e-11 1.91e-01  -5.7 5.39e-01  -1.3 2.44e-03 7.82e-05f  9
  66 -2.3491322e-01 3.15e-11 1.81e-01  -5.7 7.14e-01  -0.9 7.81e-02 7.60e-02h  1
  67 -2.3490178e-01 3.15e-11 2.06e-01  -5.7 7.73e-01  -1.4 8.23e-02 2.10e-04f 10
  68 -2.4488680e-01 1.39e-11 2.13e-01  -5.7 3.60e-02  -0.0 1.54e-01 5.59e-01f  1
  69 -3.0321041e-01 8.00e-12 1.46e-01  -5.7 2.23e-01  -0.5 1.00e+00 4.24e-01f  1
iter    objective    inf_pr   inf_du lg(mu)  ||d||  lg(rg) alpha_du alpha_pr  ls
  70 -3.0322185e-01 8.00e-12 1.58e-01  -5.7 2.38e+02  -1.0 4.49e-04 1.44e-07f  2
  71 -3.0939494e-01 7.46e-12 1.53e-01  -5.7 2.30e-01  -0.6 3.47e-01 6.82e-02f  1
  72 -3.5085175e-01 6.44e-12 2.35e-01  -5.7 1.34e+00  -1.0 3.57e-01 1.36e-01f  1
  73 -3.6110591e-01 1.37e-12 4.45e-02  -5.7 9.22e-02    -  1.00e+00 7.87e-01f  1
  74 -3.6717354e-01 2.22e-16 1.55e-03  -5.7 2.90e-02    -  1.00e+00 1.00e+00f  1
  75 -3.6736082e-01 3.68e-11 1.02e-06  -5.7 8.01e-04    -  1.00e+00 1.00e+00f  1
  76 -3.6745815e-01 8.88e-16 3.29e-08  -8.6 5.46e-05    -  1.00e+00 1.00e+00f  1
  77 -3.6745813e-01 8.15e-12 2.88e-15  -8.6 1.29e-08    -  1.00e+00 1.00e+00h  1

Number of Iterations....: 77

                                   (scaled)                 (unscaled)
Objective...............:  -3.6745812944456147e-01   -3.6745812944456147e-01
Dual infeasibility......:   2.8838878547662802e-15    2.8838878547662802e-15
Constraint violation....:   8.1475937108166363e-12    8.1475937108166363e-12
Complementarity.........:   3.1416054368213701e-09    3.1416054368213701e-09
Overall NLP error.......:   3.1416054368213701e-09    3.1416054368213701e-09


Number of objective function evaluations             = 232
Number of objective gradient evaluations             = 78
Number of equality constraint evaluations            = 232
Number of inequality constraint evaluations          = 0
Number of equality constraint Jacobian evaluations   = 1
Number of inequality constraint Jacobian evaluations = 0
Number of Lagrangian Hessian evaluations             = 77
Total CPU secs in IPOPT (w/o function evaluations)   =      0.120
Total CPU secs in NLP function evaluations           =      1.760

EXIT: Optimal Solution Found.
